c A SAT instance generated from a 3-CNF formula that had 25 clauses and 50 variables
p cnf 50 25
-13 -19 -27 0
-24 -21 -13 0
-6 -14 -48 0
-39 23 -6 0
14 41 22 0
-19 36 2 0
3 44 -27 0
-34 13 -3 0
34 3 38 0
-13 -31 20 0
-16 -37 -49 0
2 -41 -10 0
-8 -26 -34 0
7 -20 -12 0
-41 -22 24 0
-22 -28 -40 0
39 -47 -1 0
42 21 25 0
-1 -10 40 0
5 11 -6 0
27 23 -39 0
-21 15 -11 0
-28 -39 29 0
-27 -35 -47 0
-43 7 17 0
